mip/cplex/dat1.dat
N = 3;
Y = 3;
R = 1;
r = 0.150;
g = [120.000 120.000 120.000];
p = [
  [100.000 100.000 100.000]
];
m = [10 10 10];
u = [
  [10 10 10]
  [10 10 10]
  [10 10 10]
];
c = [
  [1.000]
  [1.100]
  [0.900]
];
v = [1.000 1.000 1.000];
e = [
  [2.000 1.000 0.000]
  [1.000 1.000 1.000]
  [0.500 1.000 1.500]
];
D = {<1,2,2>,<1,3,2>};

