src/pcope/c/dat1.txt
3 3 2 2
0.15
100 100 100
3000 3000
1000 1000 1000
1000 1000 1000
500 500 500 500 500 500
500 500 500 500 500 500

60
20 20 20
10 10 10 10 10 10
10.0 10.0
0.2
1.0 1.0 1.0 1.0 1.0 1.0

61
21 21 22
11 12 10 11 10 10
11.0 9.0
0.1992
1.0 1.0 1.0 1.0 1.0 1.0

58
20 20 20
9 10 10 10 10 10
10.0 10.0
0.21001
1.0 0.9 1.0 1.0 1.0 1.0

